[runlim] version:		1.10
[runlim] time limit:		311040000 seconds
[runlim] real time limit:	900 seconds
[runlim] space limit:		6000 MB
[runlim] argv[0]:		python3
[runlim] argv[1]:		cp.py
[runlim] argv[2]:		graph10
[runlim] start:			Sun Jan 18 16:04:57 2026
[runlim] main pid:		416
[runlim] sample:		9.4 time, 10.5 real, 535.9 MB
[runlim] sample:		19.4 time, 20.5 real, 1257.7 MB
[runlim] sample:		29.4 time, 30.5 real, 1583.9 MB
[runlim] sample:		39.4 time, 40.5 real, 3434.8 MB
[runlim] sample:		49.4 time, 50.5 real, 5601.9 MB
Building CP model...
Build time: 15.44s
Solving CP Optimizer...
 ! --------------------------------------------------- CP Optimizer 22.1.1.0 --
 ! Minimization problem - 27024 variables, 1840053 constraints
 ! Presolve      : 1840735 extractables eliminated
 ! LogVerbosity         = Terse
 ! Initial process time : 19.54s (19.47s extraction + 0.08s propagation)
 !  . Log search space  : 27024.0 (before), 27024.0 (after)
 !  . Memory usage      : 238.2 MB (before), 238.2 MB (after)
 ! Using parallel search with 12 workers.
 ! ----------------------------------------------------------------------------
 !          Best Branches  Non-fixed    W       Branch decision
                        0      27024                 -
 + New bound is 0
[runlim] end:			Sun Jan 18 16:05:53 2026
[runlim] status:		out of memory
[runlim] result:		3
[runlim] children:		408
[runlim] real:			56.96 seconds
[runlim] time:			68.43 seconds
[runlim] space:			6422.6 MB
[runlim] samples:		564
